p cnf 606 2310      
-4 0
-6 0
-8 0
13 0
16 0
22 0
25 0
26 0
31 0
1 2 3 0
-1 -2 -3 0
1 7 13 0
-1 -7 -13 0
2 3 4 0
-2 -3 -4 0
7 13 19 0
-7 -13 -19 0
3 4 5 0
-3 -4 -5 0
13 19 25 0
-13 -19 -25 0
4 5 6 0
-4 -5 -6 0
19 25 31 0
-19 -25 -31 0
7 8 9 0
-7 -8 -9 0
2 8 14 0
-2 -8 -14 0
8 9 10 0
-8 -9 -10 0
8 14 20 0
-8 -14 -20 0
9 10 11 0
-9 -10 -11 0
14 20 26 0
-14 -20 -26 0
10 11 12 0
-10 -11 -12 0
20 26 32 0
-20 -26 -32 0
13 14 15 0
-13 -14 -15 0
3 9 15 0
-3 -9 -15 0
14 15 16 0
-14 -15 -16 0
9 15 21 0
-9 -15 -21 0
15 16 17 0
-15 -16 -17 0
15 21 27 0
-15 -21 -27 0
16 17 18 0
-16 -17 -18 0
21 27 33 0
-21 -27 -33 0
19 20 21 0
-19 -20 -21 0
4 10 16 0
-4 -10 -16 0
20 21 22 0
-20 -21 -22 0
10 16 22 0
-10 -16 -22 0
21 22 23 0
-21 -22 -23 0
16 22 28 0
-16 -22 -28 0
22 23 24 0
-22 -23 -24 0
22 28 34 0
-22 -28 -34 0
25 26 27 0
-25 -26 -27 0
5 11 17 0
-5 -11 -17 0
26 27 28 0
-26 -27 -28 0
11 17 23 0
-11 -17 -23 0
27 28 29 0
-27 -28 -29 0
17 23 29 0
-17 -23 -29 0
28 29 30 0
-28 -29 -30 0
23 29 35 0
-23 -29 -35 0
31 32 33 0
-31 -32 -33 0
6 12 18 0
-6 -12 -18 0
32 33 34 0
-32 -33 -34 0
12 18 24 0
-12 -18 -24 0
33 34 35 0
-33 -34 -35 0
18 24 30 0
-18 -24 -30 0
34 35 36 0
-34 -35 -36 0
24 30 36 0
-24 -30 -36 0
1 2 3 4 0
-1 -2 -3 -4 0
1 7 13 19 0
-1 -7 -13 -19 0
7 8 9 10 0
-7 -8 -9 -10 0
2 8 14 20 0
-2 -8 -14 -20 0
13 14 15 16 0
-13 -14 -15 -16 0
3 9 15 21 0
-3 -9 -15 -21 0
19 20 21 22 0
-19 -20 -21 -22 0
4 10 16 22 0
-4 -10 -16 -22 0
25 26 27 28 0
-25 -26 -27 -28 0
5 11 17 23 0
-5 -11 -17 -23 0
31 32 33 34 0
-31 -32 -33 -34 0
6 12 18 24 0
-6 -12 -18 -24 0
1 2 3 5 0
-1 -2 -3 -5 0
1 7 13 25 0
-1 -7 -13 -25 0
7 8 9 11 0
-7 -8 -9 -11 0
2 8 14 26 0
-2 -8 -14 -26 0
13 14 15 17 0
-13 -14 -15 -17 0
3 9 15 27 0
-3 -9 -15 -27 0
19 20 21 23 0
-19 -20 -21 -23 0
4 10 16 28 0
-4 -10 -16 -28 0
25 26 27 29 0
-25 -26 -27 -29 0
5 11 17 29 0
-5 -11 -17 -29 0
31 32 33 35 0
-31 -32 -33 -35 0
6 12 18 30 0
-6 -12 -18 -30 0
1 2 3 6 0
-1 -2 -3 -6 0
1 7 13 31 0
-1 -7 -13 -31 0
7 8 9 12 0
-7 -8 -9 -12 0
2 8 14 32 0
-2 -8 -14 -32 0
13 14 15 18 0
-13 -14 -15 -18 0
3 9 15 33 0
-3 -9 -15 -33 0
19 20 21 24 0
-19 -20 -21 -24 0
4 10 16 34 0
-4 -10 -16 -34 0
25 26 27 30 0
-25 -26 -27 -30 0
5 11 17 35 0
-5 -11 -17 -35 0
31 32 33 36 0
-31 -32 -33 -36 0
6 12 18 36 0
-6 -12 -18 -36 0
1 2 4 5 0
-1 -2 -4 -5 0
1 7 19 25 0
-1 -7 -19 -25 0
7 8 10 11 0
-7 -8 -10 -11 0
2 8 20 26 0
-2 -8 -20 -26 0
13 14 16 17 0
-13 -14 -16 -17 0
3 9 21 27 0
-3 -9 -21 -27 0
19 20 22 23 0
-19 -20 -22 -23 0
4 10 22 28 0
-4 -10 -22 -28 0
25 26 28 29 0
-25 -26 -28 -29 0
5 11 23 29 0
-5 -11 -23 -29 0
31 32 34 35 0
-31 -32 -34 -35 0
6 12 24 30 0
-6 -12 -24 -30 0
1 2 4 6 0
-1 -2 -4 -6 0
1 7 19 31 0
-1 -7 -19 -31 0
7 8 10 12 0
-7 -8 -10 -12 0
2 8 20 32 0
-2 -8 -20 -32 0
13 14 16 18 0
-13 -14 -16 -18 0
3 9 21 33 0
-3 -9 -21 -33 0
19 20 22 24 0
-19 -20 -22 -24 0
4 10 22 34 0
-4 -10 -22 -34 0
25 26 28 30 0
-25 -26 -28 -30 0
5 11 23 35 0
-5 -11 -23 -35 0
31 32 34 36 0
-31 -32 -34 -36 0
6 12 24 36 0
-6 -12 -24 -36 0
1 2 5 6 0
-1 -2 -5 -6 0
1 7 25 31 0
-1 -7 -25 -31 0
7 8 11 12 0
-7 -8 -11 -12 0
2 8 26 32 0
-2 -8 -26 -32 0
13 14 17 18 0
-13 -14 -17 -18 0
3 9 27 33 0
-3 -9 -27 -33 0
19 20 23 24 0
-19 -20 -23 -24 0
4 10 28 34 0
-4 -10 -28 -34 0
25 26 29 30 0
-25 -26 -29 -30 0
5 11 29 35 0
-5 -11 -29 -35 0
31 32 35 36 0
-31 -32 -35 -36 0
6 12 30 36 0
-6 -12 -30 -36 0
1 3 4 5 0
-1 -3 -4 -5 0
1 13 19 25 0
-1 -13 -19 -25 0
7 9 10 11 0
-7 -9 -10 -11 0
2 14 20 26 0
-2 -14 -20 -26 0
13 15 16 17 0
-13 -15 -16 -17 0
3 15 21 27 0
-3 -15 -21 -27 0
19 21 22 23 0
-19 -21 -22 -23 0
4 16 22 28 0
-4 -16 -22 -28 0
25 27 28 29 0
-25 -27 -28 -29 0
5 17 23 29 0
-5 -17 -23 -29 0
31 33 34 35 0
-31 -33 -34 -35 0
6 18 24 30 0
-6 -18 -24 -30 0
1 3 4 6 0
-1 -3 -4 -6 0
1 13 19 31 0
-1 -13 -19 -31 0
7 9 10 12 0
-7 -9 -10 -12 0
2 14 20 32 0
-2 -14 -20 -32 0
13 15 16 18 0
-13 -15 -16 -18 0
3 15 21 33 0
-3 -15 -21 -33 0
19 21 22 24 0
-19 -21 -22 -24 0
4 16 22 34 0
-4 -16 -22 -34 0
25 27 28 30 0
-25 -27 -28 -30 0
5 17 23 35 0
-5 -17 -23 -35 0
31 33 34 36 0
-31 -33 -34 -36 0
6 18 24 36 0
-6 -18 -24 -36 0
1 3 5 6 0
-1 -3 -5 -6 0
1 13 25 31 0
-1 -13 -25 -31 0
7 9 11 12 0
-7 -9 -11 -12 0
2 14 26 32 0
-2 -14 -26 -32 0
13 15 17 18 0
-13 -15 -17 -18 0
3 15 27 33 0
-3 -15 -27 -33 0
19 21 23 24 0
-19 -21 -23 -24 0
4 16 28 34 0
-4 -16 -28 -34 0
25 27 29 30 0
-25 -27 -29 -30 0
5 17 29 35 0
-5 -17 -29 -35 0
31 33 35 36 0
-31 -33 -35 -36 0
6 18 30 36 0
-6 -18 -30 -36 0
1 4 5 6 0
-1 -4 -5 -6 0
1 19 25 31 0
-1 -19 -25 -31 0
7 10 11 12 0
-7 -10 -11 -12 0
2 20 26 32 0
-2 -20 -26 -32 0
13 16 17 18 0
-13 -16 -17 -18 0
3 21 27 33 0
-3 -21 -27 -33 0
19 22 23 24 0
-19 -22 -23 -24 0
4 22 28 34 0
-4 -22 -28 -34 0
25 28 29 30 0
-25 -28 -29 -30 0
5 23 29 35 0
-5 -23 -29 -35 0
31 34 35 36 0
-31 -34 -35 -36 0
6 24 30 36 0
-6 -24 -30 -36 0
2 3 4 5 0
-2 -3 -4 -5 0
7 13 19 25 0
-7 -13 -19 -25 0
8 9 10 11 0
-8 -9 -10 -11 0
8 14 20 26 0
-8 -14 -20 -26 0
14 15 16 17 0
-14 -15 -16 -17 0
9 15 21 27 0
-9 -15 -21 -27 0
20 21 22 23 0
-20 -21 -22 -23 0
10 16 22 28 0
-10 -16 -22 -28 0
26 27 28 29 0
-26 -27 -28 -29 0
11 17 23 29 0
-11 -17 -23 -29 0
32 33 34 35 0
-32 -33 -34 -35 0
12 18 24 30 0
-12 -18 -24 -30 0
2 3 4 6 0
-2 -3 -4 -6 0
7 13 19 31 0
-7 -13 -19 -31 0
8 9 10 12 0
-8 -9 -10 -12 0
8 14 20 32 0
-8 -14 -20 -32 0
14 15 16 18 0
-14 -15 -16 -18 0
9 15 21 33 0
-9 -15 -21 -33 0
20 21 22 24 0
-20 -21 -22 -24 0
10 16 22 34 0
-10 -16 -22 -34 0
26 27 28 30 0
-26 -27 -28 -30 0
11 17 23 35 0
-11 -17 -23 -35 0
32 33 34 36 0
-32 -33 -34 -36 0
12 18 24 36 0
-12 -18 -24 -36 0
2 3 5 6 0
-2 -3 -5 -6 0
7 13 25 31 0
-7 -13 -25 -31 0
8 9 11 12 0
-8 -9 -11 -12 0
8 14 26 32 0
-8 -14 -26 -32 0
14 15 17 18 0
-14 -15 -17 -18 0
9 15 27 33 0
-9 -15 -27 -33 0
20 21 23 24 0
-20 -21 -23 -24 0
10 16 28 34 0
-10 -16 -28 -34 0
26 27 29 30 0
-26 -27 -29 -30 0
11 17 29 35 0
-11 -17 -29 -35 0
32 33 35 36 0
-32 -33 -35 -36 0
12 18 30 36 0
-12 -18 -30 -36 0
2 4 5 6 0
-2 -4 -5 -6 0
7 19 25 31 0
-7 -19 -25 -31 0
8 10 11 12 0
-8 -10 -11 -12 0
8 20 26 32 0
-8 -20 -26 -32 0
14 16 17 18 0
-14 -16 -17 -18 0
9 21 27 33 0
-9 -21 -27 -33 0
20 22 23 24 0
-20 -22 -23 -24 0
10 22 28 34 0
-10 -22 -28 -34 0
26 28 29 30 0
-26 -28 -29 -30 0
11 23 29 35 0
-11 -23 -29 -35 0
32 34 35 36 0
-32 -34 -35 -36 0
12 24 30 36 0
-12 -24 -30 -36 0
3 4 5 6 0
-3 -4 -5 -6 0
13 19 25 31 0
-13 -19 -25 -31 0
9 10 11 12 0
-9 -10 -11 -12 0
14 20 26 32 0
-14 -20 -26 -32 0
15 16 17 18 0
-15 -16 -17 -18 0
15 21 27 33 0
-15 -21 -27 -33 0
21 22 23 24 0
-21 -22 -23 -24 0
16 22 28 34 0
-16 -22 -28 -34 0
27 28 29 30 0
-27 -28 -29 -30 0
17 23 29 35 0
-17 -23 -29 -35 0
33 34 35 36 0
-33 -34 -35 -36 0
18 24 30 36 0
-18 -24 -30 -36 0
37 0
-37 -38 -41 -44 -47 -50 -53 0
38 37 0
41 37 0
44 37 0
47 37 0
50 37 0
53 37 0
-38 39 40 0
38 -39 0
38 -40 0
-1 -39 0
-7 -39 0
1 7 39 0
1 -40 0
7 -40 0
-1 -7 40 0
-41 42 43 0
41 -42 0
41 -43 0
-2 -42 0
-8 -42 0
2 8 42 0
2 -43 0
8 -43 0
-2 -8 43 0
-44 45 46 0
44 -45 0
44 -46 0
-3 -45 0
-9 -45 0
3 9 45 0
3 -46 0
9 -46 0
-3 -9 46 0
-47 48 49 0
47 -48 0
47 -49 0
-4 -48 0
-10 -48 0
4 10 48 0
4 -49 0
10 -49 0
-4 -10 49 0
-50 51 52 0
50 -51 0
50 -52 0
-5 -51 0
-11 -51 0
5 11 51 0
5 -52 0
11 -52 0
-5 -11 52 0
-53 54 55 0
53 -54 0
53 -55 0
-6 -54 0
-12 -54 0
6 12 54 0
6 -55 0
12 -55 0
-6 -12 55 0
56 0
-56 -57 -60 -63 -66 -69 -72 0
57 56 0
60 56 0
63 56 0
66 56 0
69 56 0
72 56 0
-57 58 59 0
57 -58 0
57 -59 0
-1 -58 0
-13 -58 0
1 13 58 0
1 -59 0
13 -59 0
-1 -13 59 0
-60 61 62 0
60 -61 0
60 -62 0
-2 -61 0
-14 -61 0
2 14 61 0
2 -62 0
14 -62 0
-2 -14 62 0
-63 64 65 0
63 -64 0
63 -65 0
-3 -64 0
-15 -64 0
3 15 64 0
3 -65 0
15 -65 0
-3 -15 65 0
-66 67 68 0
66 -67 0
66 -68 0
-4 -67 0
-16 -67 0
4 16 67 0
4 -68 0
16 -68 0
-4 -16 68 0
-69 70 71 0
69 -70 0
69 -71 0
-5 -70 0
-17 -70 0
5 17 70 0
5 -71 0
17 -71 0
-5 -17 71 0
-72 73 74 0
72 -73 0
72 -74 0
-6 -73 0
-18 -73 0
6 18 73 0
6 -74 0
18 -74 0
-6 -18 74 0
75 0
-75 -76 -79 -82 -85 -88 -91 0
76 75 0
79 75 0
82 75 0
85 75 0
88 75 0
91 75 0
-76 77 78 0
76 -77 0
76 -78 0
-1 -77 0
-19 -77 0
1 19 77 0
1 -78 0
19 -78 0
-1 -19 78 0
-79 80 81 0
79 -80 0
79 -81 0
-2 -80 0
-20 -80 0
2 20 80 0
2 -81 0
20 -81 0
-2 -20 81 0
-82 83 84 0
82 -83 0
82 -84 0
-3 -83 0
-21 -83 0
3 21 83 0
3 -84 0
21 -84 0
-3 -21 84 0
-85 86 87 0
85 -86 0
85 -87 0
-4 -86 0
-22 -86 0
4 22 86 0
4 -87 0
22 -87 0
-4 -22 87 0
-88 89 90 0
88 -89 0
88 -90 0
-5 -89 0
-23 -89 0
5 23 89 0
5 -90 0
23 -90 0
-5 -23 90 0
-91 92 93 0
91 -92 0
91 -93 0
-6 -92 0
-24 -92 0
6 24 92 0
6 -93 0
24 -93 0
-6 -24 93 0
94 0
-94 -95 -98 -101 -104 -107 -110 0
95 94 0
98 94 0
101 94 0
104 94 0
107 94 0
110 94 0
-95 96 97 0
95 -96 0
95 -97 0
-1 -96 0
-25 -96 0
1 25 96 0
1 -97 0
25 -97 0
-1 -25 97 0
-98 99 100 0
98 -99 0
98 -100 0
-2 -99 0
-26 -99 0
2 26 99 0
2 -100 0
26 -100 0
-2 -26 100 0
-101 102 103 0
101 -102 0
101 -103 0
-3 -102 0
-27 -102 0
3 27 102 0
3 -103 0
27 -103 0
-3 -27 103 0
-104 105 106 0
104 -105 0
104 -106 0
-4 -105 0
-28 -105 0
4 28 105 0
4 -106 0
28 -106 0
-4 -28 106 0
-107 108 109 0
107 -108 0
107 -109 0
-5 -108 0
-29 -108 0
5 29 108 0
5 -109 0
29 -109 0
-5 -29 109 0
-110 111 112 0
110 -111 0
110 -112 0
-6 -111 0
-30 -111 0
6 30 111 0
6 -112 0
30 -112 0
-6 -30 112 0
113 0
-113 -114 -117 -120 -123 -126 -129 0
114 113 0
117 113 0
120 113 0
123 113 0
126 113 0
129 113 0
-114 115 116 0
114 -115 0
114 -116 0
-1 -115 0
-31 -115 0
1 31 115 0
1 -116 0
31 -116 0
-1 -31 116 0
-117 118 119 0
117 -118 0
117 -119 0
-2 -118 0
-32 -118 0
2 32 118 0
2 -119 0
32 -119 0
-2 -32 119 0
-120 121 122 0
120 -121 0
120 -122 0
-3 -121 0
-33 -121 0
3 33 121 0
3 -122 0
33 -122 0
-3 -33 122 0
-123 124 125 0
123 -124 0
123 -125 0
-4 -124 0
-34 -124 0
4 34 124 0
4 -125 0
34 -125 0
-4 -34 125 0
-126 127 128 0
126 -127 0
126 -128 0
-5 -127 0
-35 -127 0
5 35 127 0
5 -128 0
35 -128 0
-5 -35 128 0
-129 130 131 0
129 -130 0
129 -131 0
-6 -130 0
-36 -130 0
6 36 130 0
6 -131 0
36 -131 0
-6 -36 131 0
132 0
-132 -133 -136 -139 -142 -145 -148 0
133 132 0
136 132 0
139 132 0
142 132 0
145 132 0
148 132 0
-133 134 135 0
133 -134 0
133 -135 0
-7 -134 0
-13 -134 0
7 13 134 0
7 -135 0
13 -135 0
-7 -13 135 0
-136 137 138 0
136 -137 0
136 -138 0
-8 -137 0
-14 -137 0
8 14 137 0
8 -138 0
14 -138 0
-8 -14 138 0
-139 140 141 0
139 -140 0
139 -141 0
-9 -140 0
-15 -140 0
9 15 140 0
9 -141 0
15 -141 0
-9 -15 141 0
-142 143 144 0
142 -143 0
142 -144 0
-10 -143 0
-16 -143 0
10 16 143 0
10 -144 0
16 -144 0
-10 -16 144 0
-145 146 147 0
145 -146 0
145 -147 0
-11 -146 0
-17 -146 0
11 17 146 0
11 -147 0
17 -147 0
-11 -17 147 0
-148 149 150 0
148 -149 0
148 -150 0
-12 -149 0
-18 -149 0
12 18 149 0
12 -150 0
18 -150 0
-12 -18 150 0
151 0
-151 -152 -155 -158 -161 -164 -167 0
152 151 0
155 151 0
158 151 0
161 151 0
164 151 0
167 151 0
-152 153 154 0
152 -153 0
152 -154 0
-7 -153 0
-19 -153 0
7 19 153 0
7 -154 0
19 -154 0
-7 -19 154 0
-155 156 157 0
155 -156 0
155 -157 0
-8 -156 0
-20 -156 0
8 20 156 0
8 -157 0
20 -157 0
-8 -20 157 0
-158 159 160 0
158 -159 0
158 -160 0
-9 -159 0
-21 -159 0
9 21 159 0
9 -160 0
21 -160 0
-9 -21 160 0
-161 162 163 0
161 -162 0
161 -163 0
-10 -162 0
-22 -162 0
10 22 162 0
10 -163 0
22 -163 0
-10 -22 163 0
-164 165 166 0
164 -165 0
164 -166 0
-11 -165 0
-23 -165 0
11 23 165 0
11 -166 0
23 -166 0
-11 -23 166 0
-167 168 169 0
167 -168 0
167 -169 0
-12 -168 0
-24 -168 0
12 24 168 0
12 -169 0
24 -169 0
-12 -24 169 0
170 0
-170 -171 -174 -177 -180 -183 -186 0
171 170 0
174 170 0
177 170 0
180 170 0
183 170 0
186 170 0
-171 172 173 0
171 -172 0
171 -173 0
-7 -172 0
-25 -172 0
7 25 172 0
7 -173 0
25 -173 0
-7 -25 173 0
-174 175 176 0
174 -175 0
174 -176 0
-8 -175 0
-26 -175 0
8 26 175 0
8 -176 0
26 -176 0
-8 -26 176 0
-177 178 179 0
177 -178 0
177 -179 0
-9 -178 0
-27 -178 0
9 27 178 0
9 -179 0
27 -179 0
-9 -27 179 0
-180 181 182 0
180 -181 0
180 -182 0
-10 -181 0
-28 -181 0
10 28 181 0
10 -182 0
28 -182 0
-10 -28 182 0
-183 184 185 0
183 -184 0
183 -185 0
-11 -184 0
-29 -184 0
11 29 184 0
11 -185 0
29 -185 0
-11 -29 185 0
-186 187 188 0
186 -187 0
186 -188 0
-12 -187 0
-30 -187 0
12 30 187 0
12 -188 0
30 -188 0
-12 -30 188 0
189 0
-189 -190 -193 -196 -199 -202 -205 0
190 189 0
193 189 0
196 189 0
199 189 0
202 189 0
205 189 0
-190 191 192 0
190 -191 0
190 -192 0
-7 -191 0
-31 -191 0
7 31 191 0
7 -192 0
31 -192 0
-7 -31 192 0
-193 194 195 0
193 -194 0
193 -195 0
-8 -194 0
-32 -194 0
8 32 194 0
8 -195 0
32 -195 0
-8 -32 195 0
-196 197 198 0
196 -197 0
196 -198 0
-9 -197 0
-33 -197 0
9 33 197 0
9 -198 0
33 -198 0
-9 -33 198 0
-199 200 201 0
199 -200 0
199 -201 0
-10 -200 0
-34 -200 0
10 34 200 0
10 -201 0
34 -201 0
-10 -34 201 0
-202 203 204 0
202 -203 0
202 -204 0
-11 -203 0
-35 -203 0
11 35 203 0
11 -204 0
35 -204 0
-11 -35 204 0
-205 206 207 0
205 -206 0
205 -207 0
-12 -206 0
-36 -206 0
12 36 206 0
12 -207 0
36 -207 0
-12 -36 207 0
208 0
-208 -209 -212 -215 -218 -221 -224 0
209 208 0
212 208 0
215 208 0
218 208 0
221 208 0
224 208 0
-209 210 211 0
209 -210 0
209 -211 0
-13 -210 0
-19 -210 0
13 19 210 0
13 -211 0
19 -211 0
-13 -19 211 0
-212 213 214 0
212 -213 0
212 -214 0
-14 -213 0
-20 -213 0
14 20 213 0
14 -214 0
20 -214 0
-14 -20 214 0
-215 216 217 0
215 -216 0
215 -217 0
-15 -216 0
-21 -216 0
15 21 216 0
15 -217 0
21 -217 0
-15 -21 217 0
-218 219 220 0
218 -219 0
218 -220 0
-16 -219 0
-22 -219 0
16 22 219 0
16 -220 0
22 -220 0
-16 -22 220 0
-221 222 223 0
221 -222 0
221 -223 0
-17 -222 0
-23 -222 0
17 23 222 0
17 -223 0
23 -223 0
-17 -23 223 0
-224 225 226 0
224 -225 0
224 -226 0
-18 -225 0
-24 -225 0
18 24 225 0
18 -226 0
24 -226 0
-18 -24 226 0
227 0
-227 -228 -231 -234 -237 -240 -243 0
228 227 0
231 227 0
234 227 0
237 227 0
240 227 0
243 227 0
-228 229 230 0
228 -229 0
228 -230 0
-13 -229 0
-25 -229 0
13 25 229 0
13 -230 0
25 -230 0
-13 -25 230 0
-231 232 233 0
231 -232 0
231 -233 0
-14 -232 0
-26 -232 0
14 26 232 0
14 -233 0
26 -233 0
-14 -26 233 0
-234 235 236 0
234 -235 0
234 -236 0
-15 -235 0
-27 -235 0
15 27 235 0
15 -236 0
27 -236 0
-15 -27 236 0
-237 238 239 0
237 -238 0
237 -239 0
-16 -238 0
-28 -238 0
16 28 238 0
16 -239 0
28 -239 0
-16 -28 239 0
-240 241 242 0
240 -241 0
240 -242 0
-17 -241 0
-29 -241 0
17 29 241 0
17 -242 0
29 -242 0
-17 -29 242 0
-243 244 245 0
243 -244 0
243 -245 0
-18 -244 0
-30 -244 0
18 30 244 0
18 -245 0
30 -245 0
-18 -30 245 0
246 0
-246 -247 -250 -253 -256 -259 -262 0
247 246 0
250 246 0
253 246 0
256 246 0
259 246 0
262 246 0
-247 248 249 0
247 -248 0
247 -249 0
-13 -248 0
-31 -248 0
13 31 248 0
13 -249 0
31 -249 0
-13 -31 249 0
-250 251 252 0
250 -251 0
250 -252 0
-14 -251 0
-32 -251 0
14 32 251 0
14 -252 0
32 -252 0
-14 -32 252 0
-253 254 255 0
253 -254 0
253 -255 0
-15 -254 0
-33 -254 0
15 33 254 0
15 -255 0
33 -255 0
-15 -33 255 0
-256 257 258 0
256 -257 0
256 -258 0
-16 -257 0
-34 -257 0
16 34 257 0
16 -258 0
34 -258 0
-16 -34 258 0
-259 260 261 0
259 -260 0
259 -261 0
-17 -260 0
-35 -260 0
17 35 260 0
17 -261 0
35 -261 0
-17 -35 261 0
-262 263 264 0
262 -263 0
262 -264 0
-18 -263 0
-36 -263 0
18 36 263 0
18 -264 0
36 -264 0
-18 -36 264 0
265 0
-265 -266 -269 -272 -275 -278 -281 0
266 265 0
269 265 0
272 265 0
275 265 0
278 265 0
281 265 0
-266 267 268 0
266 -267 0
266 -268 0
-19 -267 0
-25 -267 0
19 25 267 0
19 -268 0
25 -268 0
-19 -25 268 0
-269 270 271 0
269 -270 0
269 -271 0
-20 -270 0
-26 -270 0
20 26 270 0
20 -271 0
26 -271 0
-20 -26 271 0
-272 273 274 0
272 -273 0
272 -274 0
-21 -273 0
-27 -273 0
21 27 273 0
21 -274 0
27 -274 0
-21 -27 274 0
-275 276 277 0
275 -276 0
275 -277 0
-22 -276 0
-28 -276 0
22 28 276 0
22 -277 0
28 -277 0
-22 -28 277 0
-278 279 280 0
278 -279 0
278 -280 0
-23 -279 0
-29 -279 0
23 29 279 0
23 -280 0
29 -280 0
-23 -29 280 0
-281 282 283 0
281 -282 0
281 -283 0
-24 -282 0
-30 -282 0
24 30 282 0
24 -283 0
30 -283 0
-24 -30 283 0
284 0
-284 -285 -288 -291 -294 -297 -300 0
285 284 0
288 284 0
291 284 0
294 284 0
297 284 0
300 284 0
-285 286 287 0
285 -286 0
285 -287 0
-19 -286 0
-31 -286 0
19 31 286 0
19 -287 0
31 -287 0
-19 -31 287 0
-288 289 290 0
288 -289 0
288 -290 0
-20 -289 0
-32 -289 0
20 32 289 0
20 -290 0
32 -290 0
-20 -32 290 0
-291 292 293 0
291 -292 0
291 -293 0
-21 -292 0
-33 -292 0
21 33 292 0
21 -293 0
33 -293 0
-21 -33 293 0
-294 295 296 0
294 -295 0
294 -296 0
-22 -295 0
-34 -295 0
22 34 295 0
22 -296 0
34 -296 0
-22 -34 296 0
-297 298 299 0
297 -298 0
297 -299 0
-23 -298 0
-35 -298 0
23 35 298 0
23 -299 0
35 -299 0
-23 -35 299 0
-300 301 302 0
300 -301 0
300 -302 0
-24 -301 0
-36 -301 0
24 36 301 0
24 -302 0
36 -302 0
-24 -36 302 0
303 0
-303 -304 -307 -310 -313 -316 -319 0
304 303 0
307 303 0
310 303 0
313 303 0
316 303 0
319 303 0
-304 305 306 0
304 -305 0
304 -306 0
-25 -305 0
-31 -305 0
25 31 305 0
25 -306 0
31 -306 0
-25 -31 306 0
-307 308 309 0
307 -308 0
307 -309 0
-26 -308 0
-32 -308 0
26 32 308 0
26 -309 0
32 -309 0
-26 -32 309 0
-310 311 312 0
310 -311 0
310 -312 0
-27 -311 0
-33 -311 0
27 33 311 0
27 -312 0
33 -312 0
-27 -33 312 0
-313 314 315 0
313 -314 0
313 -315 0
-28 -314 0
-34 -314 0
28 34 314 0
28 -315 0
34 -315 0
-28 -34 315 0
-316 317 318 0
316 -317 0
316 -318 0
-29 -317 0
-35 -317 0
29 35 317 0
29 -318 0
35 -318 0
-29 -35 318 0
-319 320 321 0
319 -320 0
319 -321 0
-30 -320 0
-36 -320 0
30 36 320 0
30 -321 0
36 -321 0
-30 -36 321 0
-322 -323 -326 -329 -332 -335 -338 0
323 322 0
326 322 0
329 322 0
332 322 0
335 322 0
338 322 0
-323 324 325 0
323 -324 0
323 -325 0
-1 -324 0
-2 -324 0
1 2 324 0
1 -325 0
2 -325 0
-1 -2 325 0
-326 327 328 0
326 -327 0
326 -328 0
-7 -327 0
-8 -327 0
7 8 327 0
7 -328 0
8 -328 0
-7 -8 328 0
-329 330 331 0
329 -330 0
329 -331 0
-13 -330 0
-14 -330 0
13 14 330 0
13 -331 0
14 -331 0
-13 -14 331 0
-332 333 334 0
332 -333 0
332 -334 0
-19 -333 0
-20 -333 0
19 20 333 0
19 -334 0
20 -334 0
-19 -20 334 0
-335 336 337 0
335 -336 0
335 -337 0
-25 -336 0
-26 -336 0
25 26 336 0
25 -337 0
26 -337 0
-25 -26 337 0
-338 339 340 0
338 -339 0
338 -340 0
-31 -339 0
-32 -339 0
31 32 339 0
31 -340 0
32 -340 0
-31 -32 340 0
-341 -342 -345 -348 -351 -354 -357 0
342 341 0
345 341 0
348 341 0
351 341 0
354 341 0
357 341 0
-342 343 344 0
342 -343 0
342 -344 0
-1 -343 0
-3 -343 0
1 3 343 0
1 -344 0
3 -344 0
-1 -3 344 0
-345 346 347 0
345 -346 0
345 -347 0
-7 -346 0
-9 -346 0
7 9 346 0
7 -347 0
9 -347 0
-7 -9 347 0
-348 349 350 0
348 -349 0
348 -350 0
-13 -349 0
-15 -349 0
13 15 349 0
13 -350 0
15 -350 0
-13 -15 350 0
-351 352 353 0
351 -352 0
351 -353 0
-19 -352 0
-21 -352 0
19 21 352 0
19 -353 0
21 -353 0
-19 -21 353 0
-354 355 356 0
354 -355 0
354 -356 0
-25 -355 0
-27 -355 0
25 27 355 0
25 -356 0
27 -356 0
-25 -27 356 0
-357 358 359 0
357 -358 0
357 -359 0
-31 -358 0
-33 -358 0
31 33 358 0
31 -359 0
33 -359 0
-31 -33 359 0
-360 -361 -364 -367 -370 -373 -376 0
361 360 0
364 360 0
367 360 0
370 360 0
373 360 0
376 360 0
-361 362 363 0
361 -362 0
361 -363 0
-1 -362 0
-4 -362 0
1 4 362 0
1 -363 0
4 -363 0
-1 -4 363 0
-364 365 366 0
364 -365 0
364 -366 0
-7 -365 0
-10 -365 0
7 10 365 0
7 -366 0
10 -366 0
-7 -10 366 0
-367 368 369 0
367 -368 0
367 -369 0
-13 -368 0
-16 -368 0
13 16 368 0
13 -369 0
16 -369 0
-13 -16 369 0
-370 371 372 0
370 -371 0
370 -372 0
-19 -371 0
-22 -371 0
19 22 371 0
19 -372 0
22 -372 0
-19 -22 372 0
-373 374 375 0
373 -374 0
373 -375 0
-25 -374 0
-28 -374 0
25 28 374 0
25 -375 0
28 -375 0
-25 -28 375 0
-376 377 378 0
376 -377 0
376 -378 0
-31 -377 0
-34 -377 0
31 34 377 0
31 -378 0
34 -378 0
-31 -34 378 0
-379 -380 -383 -386 -389 -392 -395 0
380 379 0
383 379 0
386 379 0
389 379 0
392 379 0
395 379 0
-380 381 382 0
380 -381 0
380 -382 0
-1 -381 0
-5 -381 0
1 5 381 0
1 -382 0
5 -382 0
-1 -5 382 0
-383 384 385 0
383 -384 0
383 -385 0
-7 -384 0
-11 -384 0
7 11 384 0
7 -385 0
11 -385 0
-7 -11 385 0
-386 387 388 0
386 -387 0
386 -388 0
-13 -387 0
-17 -387 0
13 17 387 0
13 -388 0
17 -388 0
-13 -17 388 0
-389 390 391 0
389 -390 0
389 -391 0
-19 -390 0
-23 -390 0
19 23 390 0
19 -391 0
23 -391 0
-19 -23 391 0
-392 393 394 0
392 -393 0
392 -394 0
-25 -393 0
-29 -393 0
25 29 393 0
25 -394 0
29 -394 0
-25 -29 394 0
-395 396 397 0
395 -396 0
395 -397 0
-31 -396 0
-35 -396 0
31 35 396 0
31 -397 0
35 -397 0
-31 -35 397 0
-398 -399 -402 -405 -408 -411 -414 0
399 398 0
402 398 0
405 398 0
408 398 0
411 398 0
414 398 0
-399 400 401 0
399 -400 0
399 -401 0
-1 -400 0
-6 -400 0
1 6 400 0
1 -401 0
6 -401 0
-1 -6 401 0
-402 403 404 0
402 -403 0
402 -404 0
-7 -403 0
-12 -403 0
7 12 403 0
7 -404 0
12 -404 0
-7 -12 404 0
-405 406 407 0
405 -406 0
405 -407 0
-13 -406 0
-18 -406 0
13 18 406 0
13 -407 0
18 -407 0
-13 -18 407 0
-408 409 410 0
408 -409 0
408 -410 0
-19 -409 0
-24 -409 0
19 24 409 0
19 -410 0
24 -410 0
-19 -24 410 0
-411 412 413 0
411 -412 0
411 -413 0
-25 -412 0
-30 -412 0
25 30 412 0
25 -413 0
30 -413 0
-25 -30 413 0
-414 415 416 0
414 -415 0
414 -416 0
-31 -415 0
-36 -415 0
31 36 415 0
31 -416 0
36 -416 0
-31 -36 416 0
-417 -418 -421 -424 -427 -430 -433 0
418 417 0
421 417 0
424 417 0
427 417 0
430 417 0
433 417 0
-418 419 420 0
418 -419 0
418 -420 0
-2 -419 0
-3 -419 0
2 3 419 0
2 -420 0
3 -420 0
-2 -3 420 0
-421 422 423 0
421 -422 0
421 -423 0
-8 -422 0
-9 -422 0
8 9 422 0
8 -423 0
9 -423 0
-8 -9 423 0
-424 425 426 0
424 -425 0
424 -426 0
-14 -425 0
-15 -425 0
14 15 425 0
14 -426 0
15 -426 0
-14 -15 426 0
-427 428 429 0
427 -428 0
427 -429 0
-20 -428 0
-21 -428 0
20 21 428 0
20 -429 0
21 -429 0
-20 -21 429 0
-430 431 432 0
430 -431 0
430 -432 0
-26 -431 0
-27 -431 0
26 27 431 0
26 -432 0
27 -432 0
-26 -27 432 0
-433 434 435 0
433 -434 0
433 -435 0
-32 -434 0
-33 -434 0
32 33 434 0
32 -435 0
33 -435 0
-32 -33 435 0
-436 -437 -440 -443 -446 -449 -452 0
437 436 0
440 436 0
443 436 0
446 436 0
449 436 0
452 436 0
-437 438 439 0
437 -438 0
437 -439 0
-2 -438 0
-4 -438 0
2 4 438 0
2 -439 0
4 -439 0
-2 -4 439 0
-440 441 442 0
440 -441 0
440 -442 0
-8 -441 0
-10 -441 0
8 10 441 0
8 -442 0
10 -442 0
-8 -10 442 0
-443 444 445 0
443 -444 0
443 -445 0
-14 -444 0
-16 -444 0
14 16 444 0
14 -445 0
16 -445 0
-14 -16 445 0
-446 447 448 0
446 -447 0
446 -448 0
-20 -447 0
-22 -447 0
20 22 447 0
20 -448 0
22 -448 0
-20 -22 448 0
-449 450 451 0
449 -450 0
449 -451 0
-26 -450 0
-28 -450 0
26 28 450 0
26 -451 0
28 -451 0
-26 -28 451 0
-452 453 454 0
452 -453 0
452 -454 0
-32 -453 0
-34 -453 0
32 34 453 0
32 -454 0
34 -454 0
-32 -34 454 0
-455 -456 -459 -462 -465 -468 -471 0
456 455 0
459 455 0
462 455 0
465 455 0
468 455 0
471 455 0
-456 457 458 0
456 -457 0
456 -458 0
-2 -457 0
-5 -457 0
2 5 457 0
2 -458 0
5 -458 0
-2 -5 458 0
-459 460 461 0
459 -460 0
459 -461 0
-8 -460 0
-11 -460 0
8 11 460 0
8 -461 0
11 -461 0
-8 -11 461 0
-462 463 464 0
462 -463 0
462 -464 0
-14 -463 0
-17 -463 0
14 17 463 0
14 -464 0
17 -464 0
-14 -17 464 0
-465 466 467 0
465 -466 0
465 -467 0
-20 -466 0
-23 -466 0
20 23 466 0
20 -467 0
23 -467 0
-20 -23 467 0
-468 469 470 0
468 -469 0
468 -470 0
-26 -469 0
-29 -469 0
26 29 469 0
26 -470 0
29 -470 0
-26 -29 470 0
-471 472 473 0
471 -472 0
471 -473 0
-32 -472 0
-35 -472 0
32 35 472 0
32 -473 0
35 -473 0
-32 -35 473 0
-474 -475 -478 -481 -484 -487 -490 0
475 474 0
478 474 0
481 474 0
484 474 0
487 474 0
490 474 0
-475 476 477 0
475 -476 0
475 -477 0
-2 -476 0
-6 -476 0
2 6 476 0
2 -477 0
6 -477 0
-2 -6 477 0
-478 479 480 0
478 -479 0
478 -480 0
-8 -479 0
-12 -479 0
8 12 479 0
8 -480 0
12 -480 0
-8 -12 480 0
-481 482 483 0
481 -482 0
481 -483 0
-14 -482 0
-18 -482 0
14 18 482 0
14 -483 0
18 -483 0
-14 -18 483 0
-484 485 486 0
484 -485 0
484 -486 0
-20 -485 0
-24 -485 0
20 24 485 0
20 -486 0
24 -486 0
-20 -24 486 0
-487 488 489 0
487 -488 0
487 -489 0
-26 -488 0
-30 -488 0
26 30 488 0
26 -489 0
30 -489 0
-26 -30 489 0
-490 491 492 0
490 -491 0
490 -492 0
-32 -491 0
-36 -491 0
32 36 491 0
32 -492 0
36 -492 0
-32 -36 492 0
-493 -494 -497 -500 -503 -506 -509 0
494 493 0
497 493 0
500 493 0
503 493 0
506 493 0
509 493 0
-494 495 496 0
494 -495 0
494 -496 0
-3 -495 0
-4 -495 0
3 4 495 0
3 -496 0
4 -496 0
-3 -4 496 0
-497 498 499 0
497 -498 0
497 -499 0
-9 -498 0
-10 -498 0
9 10 498 0
9 -499 0
10 -499 0
-9 -10 499 0
-500 501 502 0
500 -501 0
500 -502 0
-15 -501 0
-16 -501 0
15 16 501 0
15 -502 0
16 -502 0
-15 -16 502 0
-503 504 505 0
503 -504 0
503 -505 0
-21 -504 0
-22 -504 0
21 22 504 0
21 -505 0
22 -505 0
-21 -22 505 0
-506 507 508 0
506 -507 0
506 -508 0
-27 -507 0
-28 -507 0
27 28 507 0
27 -508 0
28 -508 0
-27 -28 508 0
-509 510 511 0
509 -510 0
509 -511 0
-33 -510 0
-34 -510 0
33 34 510 0
33 -511 0
34 -511 0
-33 -34 511 0
-512 -513 -516 -519 -522 -525 -528 0
513 512 0
516 512 0
519 512 0
522 512 0
525 512 0
528 512 0
-513 514 515 0
513 -514 0
513 -515 0
-3 -514 0
-5 -514 0
3 5 514 0
3 -515 0
5 -515 0
-3 -5 515 0
-516 517 518 0
516 -517 0
516 -518 0
-9 -517 0
-11 -517 0
9 11 517 0
9 -518 0
11 -518 0
-9 -11 518 0
-519 520 521 0
519 -520 0
519 -521 0
-15 -520 0
-17 -520 0
15 17 520 0
15 -521 0
17 -521 0
-15 -17 521 0
-522 523 524 0
522 -523 0
522 -524 0
-21 -523 0
-23 -523 0
21 23 523 0
21 -524 0
23 -524 0
-21 -23 524 0
-525 526 527 0
525 -526 0
525 -527 0
-27 -526 0
-29 -526 0
27 29 526 0
27 -527 0
29 -527 0
-27 -29 527 0
-528 529 530 0
528 -529 0
528 -530 0
-33 -529 0
-35 -529 0
33 35 529 0
33 -530 0
35 -530 0
-33 -35 530 0
-531 -532 -535 -538 -541 -544 -547 0
532 531 0
535 531 0
538 531 0
541 531 0
544 531 0
547 531 0
-532 533 534 0
532 -533 0
532 -534 0
-3 -533 0
-6 -533 0
3 6 533 0
3 -534 0
6 -534 0
-3 -6 534 0
-535 536 537 0
535 -536 0
535 -537 0
-9 -536 0
-12 -536 0
9 12 536 0
9 -537 0
12 -537 0
-9 -12 537 0
-538 539 540 0
538 -539 0
538 -540 0
-15 -539 0
-18 -539 0
15 18 539 0
15 -540 0
18 -540 0
-15 -18 540 0
-541 542 543 0
541 -542 0
541 -543 0
-21 -542 0
-24 -542 0
21 24 542 0
21 -543 0
24 -543 0
-21 -24 543 0
-544 545 546 0
544 -545 0
544 -546 0
-27 -545 0
-30 -545 0
27 30 545 0
27 -546 0
30 -546 0
-27 -30 546 0
-547 548 549 0
547 -548 0
547 -549 0
-33 -548 0
-36 -548 0
33 36 548 0
33 -549 0
36 -549 0
-33 -36 549 0
-550 -551 -554 -557 -560 -563 -566 0
551 550 0
554 550 0
557 550 0
560 550 0
563 550 0
566 550 0
-551 552 553 0
551 -552 0
551 -553 0
-4 -552 0
-5 -552 0
4 5 552 0
4 -553 0
5 -553 0
-4 -5 553 0
-554 555 556 0
554 -555 0
554 -556 0
-10 -555 0
-11 -555 0
10 11 555 0
10 -556 0
11 -556 0
-10 -11 556 0
-557 558 559 0
557 -558 0
557 -559 0
-16 -558 0
-17 -558 0
16 17 558 0
16 -559 0
17 -559 0
-16 -17 559 0
-560 561 562 0
560 -561 0
560 -562 0
-22 -561 0
-23 -561 0
22 23 561 0
22 -562 0
23 -562 0
-22 -23 562 0
-563 564 565 0
563 -564 0
563 -565 0
-28 -564 0
-29 -564 0
28 29 564 0
28 -565 0
29 -565 0
-28 -29 565 0
-566 567 568 0
566 -567 0
566 -568 0
-34 -567 0
-35 -567 0
34 35 567 0
34 -568 0
35 -568 0
-34 -35 568 0
-569 -570 -573 -576 -579 -582 -585 0
570 569 0
573 569 0
576 569 0
579 569 0
582 569 0
585 569 0
-570 571 572 0
570 -571 0
570 -572 0
-4 -571 0
-6 -571 0
4 6 571 0
4 -572 0
6 -572 0
-4 -6 572 0
-573 574 575 0
573 -574 0
573 -575 0
-10 -574 0
-12 -574 0
10 12 574 0
10 -575 0
12 -575 0
-10 -12 575 0
-576 577 578 0
576 -577 0
576 -578 0
-16 -577 0
-18 -577 0
16 18 577 0
16 -578 0
18 -578 0
-16 -18 578 0
-579 580 581 0
579 -580 0
579 -581 0
-22 -580 0
-24 -580 0
22 24 580 0
22 -581 0
24 -581 0
-22 -24 581 0
-582 583 584 0
582 -583 0
582 -584 0
-28 -583 0
-30 -583 0
28 30 583 0
28 -584 0
30 -584 0
-28 -30 584 0
-585 586 587 0
585 -586 0
585 -587 0
-34 -586 0
-36 -586 0
34 36 586 0
34 -587 0
36 -587 0
-34 -36 587 0
-588 -589 -592 -595 -598 -601 -604 0
589 588 0
592 588 0
595 588 0
598 588 0
601 588 0
604 588 0
-589 590 591 0
589 -590 0
589 -591 0
-5 -590 0
-6 -590 0
5 6 590 0
5 -591 0
6 -591 0
-5 -6 591 0
-592 593 594 0
592 -593 0
592 -594 0
-11 -593 0
-12 -593 0
11 12 593 0
11 -594 0
12 -594 0
-11 -12 594 0
-595 596 597 0
595 -596 0
595 -597 0
-17 -596 0
-18 -596 0
17 18 596 0
17 -597 0
18 -597 0
-17 -18 597 0
-598 599 600 0
598 -599 0
598 -600 0
-23 -599 0
-24 -599 0
23 24 599 0
23 -600 0
24 -600 0
-23 -24 600 0
-601 602 603 0
601 -602 0
601 -603 0
-29 -602 0
-30 -602 0
29 30 602 0
29 -603 0
30 -603 0
-29 -30 603 0
-604 605 606 0
604 -605 0
604 -606 0
-35 -605 0
-36 -605 0
35 36 605 0
35 -606 0
36 -606 0
-35 -36 606 0
